NAME : 13.78292.tour
COMMENT : Length = 78292
COMMENT : Found by LKH-3 [Keld Helsgaun] Thu Jun 19 18:16:19 2025
TYPE : TOUR
DIMENSION : 100
TOUR_SECTION
1
22
5
72
34
53
76
85
15
73
17
83
35
23
48
49
58
75
31
91
41
33
59
54
68
52
61
95
36
78
64
81
89
16
51
9
26
74
44
12
8
56
70
96
80
21
90
13
77
46
82
28
27
92
11
18
98
25
43
87
10
37
88
63
62
38
71
67
97
57
65
66
93
19
94
100
47
60
69
84
30
4
42
32
86
40
20
2
7
39
79
50
99
14
29
3
6
24
45
55
-1
EOF
